c description: Random 5-CNF over 15 variables and 80 clauses
c generator: CNFgen (0.9.0)
c copyright: (C) 2012-2020 Massimo Lauria <massimo.lauria@uniroma1.it>
c url: https://massimolauria.net/cnfgen
c
p cnf 15 80
1 -3 -5 6 -10 0
-3 -6 -10 11 -15 0
1 -9 11 12 14 0
-5 7 -10 -11 15 0
4 -9 -12 -13 -15 0
-3 -7 8 -13 14 0
-2 5 6 11 13 0
5 6 -8 -10 15 0
-3 -6 8 13 -15 0
1 -3 -10 -12 13 0
5 10 -12 -14 -15 0
-1 3 7 8 15 0
1 -11 12 13 14 0
1 -6 -9 14 -15 0
1 -3 5 6 9 0
3 6 7 8 11 0
4 -5 -8 9 13 0
-3 -5 7 8 -14 0
1 4 5 -6 -8 0
-6 7 -8 -9 10 0
2 5 7 -12 -13 0
3 9 -10 -11 -14 0
3 5 8 11 15 0
2 5 8 -9 -10 0
-3 -8 -10 12 15 0
6 7 -9 10 -13 0
-2 4 6 7 -10 0
1 3 -7 12 15 0
-1 -2 4 -5 6 0
-1 3 -4 -6 -8 0
3 -7 -9 -12 -14 0
1 7 9 -11 15 0
-1 9 -12 13 -14 0
-5 -8 -10 11 14 0
-4 -6 -9 12 -15 0
1 -3 -12 -13 -15 0
-1 -3 -8 -13 14 0
1 -8 12 -14 15 0
-4 -5 7 10 15 0
1 -5 -9 -12 13 0
-10 11 -12 13 15 0
2 5 7 -11 12 0
1 -2 4 6 9 0
1 -4 7 -9 11 0
-1 2 4 -5 11 0
-2 -5 8 10 -13 0
1 5 -6 -9 12 0
-7 8 9 -11 -12 0
-4 9 -11 -13 15 0
3 8 -11 14 -15 0
3 7 11 12 -13 0
-1 -4 5 8 10 0
-3 -10 12 13 -14 0
2 -3 5 -6 -14 0
5 6 7 -11 -15 0
-7 -8 10 13 15 0
-1 -4 5 -14 15 0
-6 7 10 13 15 0
-2 3 8 12 -13 0
-2 4 -5 -8 15 0
-2 3 -5 -6 8 0
-5 -8 -11 13 -14 0
-3 -4 -6 -12 14 0
1 -2 -4 9 13 0
2 4 6 -8 10 0
-2 6 11 -13 14 0
-2 3 -5 10 12 0
4 7 9 -13 14 0
-6 -7 -11 13 14 0
-5 8 11 -12 -13 0
1 -3 -7 -10 -15 0
-1 -4 5 -8 15 0
2 3 10 11 15 0
-3 4 -8 10 -13 0
-1 3 -4 -6 -7 0
-1 -6 10 13 15 0
-2 3 5 -6 13 0
4 5 -8 12 -14 0
4 8 -9 13 -14 0
2 -11 13 14 15 0